c --- [ banner ] -------------------------------------------------------------
c 
c CaDiCaL Radically Simplified CDCL SAT Solver
c Copyright (c) 2016-2021 A. Biere, M. Fleury, N. Froleyks
c 
c Version 1.5.2 ca9bff05c11bde5eae4912f9932871d1527e61d8
c g++ (GCC) 9.3.0 -Wall -Wextra -O3 -DNDEBUG
c Sun May 1 02:23:23 EDT 2022 Linux gra-login1 3.10.0-1160.59.1.el7.x86_64 x86_64
c 
c --- [ limit ] --------------------------------------------------------------
c 
c setting conflict limit to 200000 conflicts (due to '200000')
c 
c --- [ parsing input ] ------------------------------------------------------
c 
c reading DIMACS file from '12.cubes21.adj'
c opening file to read '12.cubes21.adj'
c found 'p cnf 5320 924210' header
c parsed 924210 clauses in 8.74 seconds process time
c closing file '12.cubes21.adj'
c after reading 686668117 bytes 654.9 MB
c 
c --- [ options ] ------------------------------------------------------------
c 
c all options are set to their default value
c 
c --- [ solving ] ------------------------------------------------------------
c 
c time measured in process time since initialization
c 
c  seconds   reductions  redundant  irredundant
c          MB    restarts       trail      variables
c           level   conflicts       glue        remaining
c 
c *  8.74 691  0 0   0    0    0  0% 0 923580 3888 73%
c {  9.67 731  0 0   0    0    0  0% 0 923580 3888 73%
c i 10.00 734 84 0   0   11   10 47% 2 923580 3887 73%
c i 10.00 734 80 0   0   12   10 46% 2 923580 3879 73%
c i 10.44 742 67 0   2   23   20 50% 4 923580 3878 73%
c - 13.28 699 12 1  11  301   86 43% 6 158905 3878 73%
c i 13.35 699 10 1  11  394   96 42% 5 158905 3850 72%
c i 13.50 699 11 1  35  511  128 42% 7 158905 3849 72%
c i 13.70 699 14 1  43  543  154 43% 8 158905 3848 72%
c i 13.91 699 19 1 141  939  219 43% 12 158905 3847 72%
c } 14.05 700 20 1 157 1002  269 44% 13 158905 3847 72%
c [ 14.05 700  0 1 157 1002  269  0% 0 158905 3847 72%
c O 14.05 700  4 1 157 1003  270 32% 3 158905 3847 72%
c - 14.31 746  4 2 157 1021  230 34% 4 157268 3847 72%
c i 14.36 746  9 2 157 1174  247 42% 8 157268 3846 72%
c i 14.36 746  9 2 157 1178  250 43% 8 157268 3845 72%
c i 14.38 746  9 2 157 1188  257 43% 9 157268 3844 72%
c i 14.39 746 10 2 157 1194  262 44% 9 157268 3843 72%
c i 14.39 746 10 2 157 1195  262 44% 9 157268 3842 72%
c i 14.40 746 10 2 157 1208  269 44% 9 157268 3841 72%
c 
c  seconds   reductions  redundant  irredundant
c          MB    restarts       trail      variables
c           level   conflicts       glue        remaining
c 
c i 14.40 746 10 2 157 1210  270 45% 9 157268 3840 72%
c i 14.41 746 10 2 157 1218  277 45% 9 157268 3839 72%
c i 14.41 746 10 2 157 1226  280 45% 9 157268 3838 72%
c i 14.42 746 10 2 157 1228  281 46% 9 157268 3837 72%
c i 14.44 746 11 2 157 1296  318 48% 10 157268 3836 72%
c i 14.45 746 12 2 157 1323  338 48% 11 157268 3835 72%
c i 14.46 746 12 2 157 1345  353 48% 11 157268 3834 72%
c i 14.47 746 12 2 157 1349  355 48% 11 157268 3833 72%
c i 14.50 746 12 2 157 1454  432 50% 11 157268 3832 72%
c i 14.51 746 12 2 157 1468  440 50% 11 157268 3831 72%
c i 14.51 746 12 2 157 1469  440 50% 11 157268 3830 72%
c i 14.52 746 12 2 157 1480  447 50% 11 157268 3829 72%
c i 14.54 746 13 2 157 1552  487 51% 11 157268 3828 72%
c i 14.55 746 13 2 157 1559  493 51% 11 157268 3827 72%
c i 14.57 746 13 2 157 1640  527 51% 11 157268 3826 72%
c i 14.58 746 13 2 157 1685  546 52% 11 157268 3825 72%
c i 14.61 746 13 2 157 1837  622 52% 11 157268 3824 72%
c i 14.64 746 13 2 157 1917  646 52% 11 157268 3823 72%
c i 14.65 746 13 2 157 2020  688 52% 11 157268 3822 72%
c - 14.79 745 13 3 158 2097  630 52% 11 157197 3822 72%
c 
c  seconds   reductions  redundant   irredundant
c          MB    restarts       trail       variables
c           level   conflicts       glue         remaining
c 
c i 15.00 720 13 3 158 2589  980 35% 11 157197 3821 72%
c i 15.09 720 13 3 158 2982 1179 36% 12 157197 3820 72%
c ] 15.09 720 13 3 158 3007 1189 36% 12 157197 3820 72%
c { 15.09 720 20 3 158 3007 1189 61% 13 157197 3820 72%
c F 15.09 720 20 3 159 3008 1190 61% 13 157197 3820 72%
c i 15.09 720 20 3 159 3013 1193 60% 12 157197 3803 71%
c i 15.10 720 20 3 160 3014 1193 60% 12 157197 3787 71%
c i 15.15 720 19 3 162 3174 1264 56% 12 157197 3786 71%
c i 15.17 720 18 3 162 3281 1317 54% 12 157197 3785 71%
c - 15.42 719 17 4 176 3533 1080 51% 11 156680 3785 71%
c i 15.46 719 17 4 176 3568 1102 51% 11 156680 3768 71%
c i 15.59 719 16 4 176 3822 1232 48% 11 156680 3767 71%
c i 15.59 719 16 4 176 3831 1238 48% 11 156680 3766 71%
c i 15.60 719 16 4 176 3879 1275 48% 10 156680 3765 71%
c i 15.60 719 16 4 176 3880 1275 48% 10 156680 3764 71%
c i 15.70 719 16 4 180 4157 1388 45% 10 156680 3763 71%
c d 16.06 719 18 4 398 5000  727 39% 12 155361 3757 71%
c 2 16.10 719 18 4 398 5000 2214 39% 12 155282 3724 70%
c p 17.04 719 18 4 398 5000 9530 39% 12 155282 3672 69%
c d 17.20 719 18 4 398 5000 8598 39% 12 142733 3666 69%
c 
c  seconds   reductions  redundant   irredundant
c          MB    restarts       trail       variables
c           level   conflicts       glue         remaining
c 
c d 17.27 719 18 4 398 5000 8598 39% 12 142729 3664 69%
c - 17.88 677 20 5 469 5326  935 38% 13 142729 3664 69%
c # 19.26 675 23 5 608 6009 1419 37% 14 142729 3664 69%
c } 20.32 676 25 5 734 7007 2036 36% 15 142729 3664 69%
c [ 20.32 676 13 5 734 7007 2036 36% 12 142729 3664 69%
c - 20.55 676 16 6 735 7405 1981 36% 13 142729 3664 69%
c - 21.70 676 22 7 736 9833 2742 35% 19 142729 3664 69%
c I 21.83 676 22 7 736 10012 2857 35% 19 142729 3664 69%
c - 23.52 676 23 8 738 12605 2922 34% 20 142729 3664 69%
c d 24.85 675 24 8 739 15000 4203 34% 20 137949 3662 69%
c 3 24.87 676 24 8 739 15000 5460 34% 20 137949 3662 69%
c 2 24.90 676 24 8 739 15000 5678 34% 20 137938 3662 69%
c p 25.92 676 24 8 739 15000 13101 34% 20 137938 3660 69%
c ] 25.98 676 24 8 739 15007 13108 34% 20 137938 3660 69%
c { 25.98 676 25 8 739 15007 13108 36% 15 137938 3660 69%
c B 26.03 676 25 8 741 15013 13114 36% 15 137938 3660 69%
c - 26.47 676 24 9 751 15722 3418 36% 14 137932 3660 69%
c s 26.60 676 23 9 751 15788 3342 36% 14 135321 3660 69%
c v 27.47 676 23 9 751 15788 3342 36% 14 135298 3660 69%
c t 27.53 676 23 9 751 15788 3310 36% 14 135184 3660 69%
c 
c  seconds   reductions   redundant   irredundant
c          MB    restarts        trail       variables
c           level    conflicts       glue        remaining
c 
c e 27.80 676 23 9 751 15788 3089 36% 14 129849 758 14%
c s 27.90 676 23 9 751 15788 3087 36% 14 129734 758 14%
c i 29.80 676 23 9 930 18403 4266 56% 14 129734 753 14%
c - 30.47 676 22 10 962 19142 3139 58% 14 126456 753 14%
c W 32.12 676 22 10 1063 21016 4073 59% 14 126456 753 14%
c - 33.44 676 22 11 1229 22780 3513 59% 14 126456 753 14%
c - 36.49 677 22 12 1562 26746 4369 61% 14 126456 753 14%
c F 37.28 677 21 12 1612 28017 5060 61% 14 126456 753 14%
c 2 38.88 677 21 12 1697 30000 6966 62% 14 126455 753 14%
c p 39.98 677 21 12 1697 30000 9155 62% 14 126455 748 14%
c } 40.68 677 20 12 1702 31007 9723 62% 14 126455 748 14%
c [ 40.68 677 24 12 1702 31007 9723 173% 20 126455 748 14%
c - 40.84 677 24 13 1702 31046 5336 172% 20 126440 748 14%
c i 40.90 677 24 13 1702 31075 5339 172% 20 126440 747 14%
c - 42.40 676 23 14 1705 35673 5463 135% 20 126437 747 14%
c B 42.57 676 23 14 1705 36018 5668 133% 20 126437 747 14%
c - 43.90 677 22 15 1708 40633 5451 114% 18 126437 747 14%
c W 46.50 677 22 15 1709 45019 7847 104% 18 126437 747 14%
c s 46.79 677 22 15 1709 45466 8084 103% 18 125951 747 14%
c v 47.83 677 22 15 1709 45466 8084 103% 18 125933 747 14%
c 
c  seconds   reductions     redundant    irredundant
c          MB     restarts         trail        variables
c           level      conflicts        glue        remaining
c 
c t 47.88 677 22 15 1709 45466 8084 103% 18 125932 747 14%
c e 48.14 680 22 15 1709 45466 8071 103% 18 125843 716 13%
c s 48.26 680 22 15 1709 45466 8070 103% 18 125590 716 13%
c - 48.82 680 22 16 1709 45921 5946 102% 18 125590 716 13%
c p 51.41 680 21 16 1710 50000 10212 96% 18 125590 716 13%
c - 52.02 680 21 17 1710 51527 6261 94% 18 125590 716 13%
c O 53.14 680 22 17 1711 55020 8593 91% 18 125590 716 13%
c - 54.14 680 22 18 1713 57462 7079 89% 18 125590 716 13%
c ] 56.14 680 21 18 1717 63008 9782 85% 18 125590 716 13%
c { 56.14 680 20 18 1717 63008 9782 62% 14 125590 716 13%
c - 56.57 680 20 19 1722 63728 6634 62% 14 125590 716 13%
c B 57.68 680 20 19 1843 66023 7934 62% 14 125590 716 13%
c - 60.06 680 19 20 2036 70326 7415 62% 14 125590 716 13%
c p 63.51 680 19 20 2356 75000 12941 63% 14 125590 714 13%
c - 64.41 680 19 21 2406 77254 8237 63% 14 125584 714 13%
c W 65.02 680 19 21 2500 78024 8665 63% 14 125584 714 13%
c - 68.75 680 19 22 2930 84510 8819 63% 14 125584 714 13%
c s 71.36 680 18 22 3110 90195 11733 64% 13 124804 714 13%
c v 72.22 680 18 22 3110 90195 11733 64% 13 124774 714 13%
c w 72.29 680 18 22 3110 90195 11732 64% 13 124774 714 13%
c 
c  seconds   reductions      redundant   irredundant
c          MB     restarts          trail       variables
c           level      conflicts        glue        remaining
c 
c s 72.72 680 18 22 3110 90195 11731 64% 13 124451 714 13%
c # 73.41 680 18 22 3125 91027 12098 64% 13 124451 714 13%
c - 74.21 680 18 23 3315 92092 9199 64% 14 124451 714 13%
c i 75.93 680 18 23 3408 95562 10939 63% 13 124451 713 13%
c - 78.32 680 18 24 3618 99975 8723 64% 13 124448 713 13%
c p 83.22 680 17 24 3978 105000 14760 64% 13 124448 711 13%
c B 83.35 680 17 24 3978 105031 14781 64% 13 124448 711 13%
c - 84.63 680 17 25 4028 108188 10310 64% 13 124442 711 13%
c i 84.93 680 17 25 4028 108678 10488 64% 13 124442 710 13%
c - 90.11 680 17 26 4340 116731 10016 64% 13 124439 710 13%
c W 92.94 680 17 26 4545 120033 11723 64% 13 124439 710 13%
c - 94.96 680 16 27 4703 125602 10988 64% 13 124439 710 13%
c } 95.51 680 16 27 4765 127008 11633 64% 13 124439 710 13%
c [ 95.51 680 21 27 4765 127008 11633 85% 18 124439 710 13%
c - 100.09 680 21 28 4768 134799 11892 81% 18 124439 710 13%
c B 100.70 680 22 28 4770 136037 12556 80% 18 124439 710 13%
c p 103.62 680 22 28 4772 140001 17785 79% 19 124439 710 13%
c - 105.81 680 23 29 4773 144331 12334 78% 19 124439 710 13%
c s 109.06 680 23 29 4773 149765 15356 76% 20 123240 710 13%
c v 109.95 680 23 29 4773 149765 15356 76% 20 123238 710 13%
c 
c  seconds    reductions       redundant   irredundant
c           MB     restarts           trail       variables
c            level      conflicts         glue        remaining
c 
c w 110.02 680 23 29 4773 149765 15354 76% 20 123238 710 13%
c t 110.02 680 23 29 4773 149765 15353 76% 20 123238 710 13%
c s 110.52 680 23 29 4773 149765 15351 76% 20 122759 710 13%
c W 113.21 680 23 29 4774 153042 17086 76% 20 122759 710 13%
c - 113.72 680 23 30 4774 154186 12378 75% 20 122759 710 13%
c - 118.78 680 25 31 4774 164323 13511 74% 21 122759 710 13%
c I 122.09 680 25 31 4777 171047 17434 73% 21 122759 710 13%
c - 124.90 680 25 32 4780 174778 13620 72% 21 122759 710 13%
c p 130.02 680 25 32 4781 180001 19732 71% 21 122759 710 13%
c i 133.92 680 25 32 4785 185097 22421 71% 21 122759 702 13%
c - 134.27 680 25 33 4785 185563 8497 71% 21 93974 702 13%
c B 136.03 680 25 33 4788 190048 11464 70% 21 93974 702 13%
c - 138.09 680 25 34 4789 195766 12256 70% 21 93974 702 13%
c ] 139.79 680 25 34 4789 200004 14556 69% 21 93974 702 13%
c ? 139.79 680 25 34 4789 200004 14556 69% 21 93974 702 13%
c 
c --- [ writing output ] -----------------------------------------------------
c 
c writing simplified CNF to DIMACS file 'simp/12.cubes21.adj.simp1'
c * 139.79 680 25 34 4789 200004 14556 69% 21 93974 702 13%
c opening file to write 'simp/12.cubes21.adj.simp1'
c writing 'p cnf 5320 93974' header
c closing file 'simp/12.cubes21.adj.simp1'
c after writing 25765686 bytes 24.6 MB
c wrote 93974 clauses in 0.23 seconds process time
c 
c --- [ writing extension ] --------------------------------------------------
c 
c writing extension stack to 'simp/12.cubes21.adj.ext1'
c opening file to write 'simp/12.cubes21.adj.ext1'
c closing file 'simp/12.cubes21.adj.ext1'
c after writing 164076 bytes 0.2 MB
c wrote 7595 witnesses in 0.00 seconds process time
c 
c --- [ result ] -------------------------------------------------------------
c 
c UNKNOWN
c 
c --- [ run-time profiling ] -------------------------------------------------
c 
c process time taken by individual solving procedures
c (percentage relative to process time for solving)
c 
c       115.82   88.38% search
c        58.77   44.85% stable
c        54.17   41.33% unstable
c        15.23   11.62% simplify
c         8.74    6.67% parse
c         7.39    5.64% probe
c         3.86    2.95% vivify
c         1.95    1.49% walk
c         1.92    1.47% elim
c         1.26    0.96% subsume
c         0.94    0.71% lucky
c         0.16    0.12% ternary
c   =================================
c       131.05   93.59% solve
c 
c last line shows process time for solving
c (percentage relative to total process time)
c 
c --- [ statistics ] ---------------------------------------------------------
c 
c chronological:             34807        17.40 %  of conflicts
c conflicts:                200004      1526.18    per second
c decisions:                328658      2507.90    per second
c eliminated:                 2933        55.13 %  of all variables
c fixed:                      1669        31.37 %  of all variables
c learned:                  196216        98.11 %  per conflict
c learned_lits:           25048854       100.00 %  learned literals
c minimized:                     0         0.00 %  learned literals
c shrunken:               16726765        66.78 %  learned literals
c minishrunken:            1402218         5.60 %  learned literals
c propagations:           13687375         0.10 M  per second
c reduced:                   84283        42.14 %  per conflict
c rephased:                     19     10526.53    interval
c restarts:                   4789        41.76    interval
c stabilizing:                   4        57.50 %  of conflicts
c substituted:                  16         0.30 %  of all variables
c subsumed:                  93063         3.87 %  of all clauses
c strengthened:              42592         1.77 %  of all clauses
c ternary:                    6853         0.72 %  of resolved
c vivified:                    126         0.01 %  of all clauses
c walked:                        5     40000.80    interval
c weakened:                   5926         2.83    average size
c 
c seconds are measured in process time for solving
c 
c --- [ resources ] ----------------------------------------------------------
c 
c total process time since initialization:       140.02    seconds
c total real time since initialization:          140.54    seconds
c maximum resident set size of process:          791.37    MB
c 
c --- [ shutting down ] ------------------------------------------------------
c 
c exit 0
WARNING! DIMACS header mismatch: wrong number of variables.
============================[ Problem Statistics ]=============================
|                                                                             |
|  Number of variables:          3158                                         |
|  Number of clauses:           93976                                         |
|  Parse time:                   0.35 s                                       |
|  Simplification time:          0.01 s                                       |
|                                                                             |
============================[ Search Statistics ]====================================================
| Conflicts |          ORIGINAL         |          LEARNT          | Num Sols |      SUBGRAPHS      |
|           |    Vars  Clauses Literals |    Limit  Clauses Lit/Cl |          | Canonical Noncanon. |
=====================================================================================================
|       100 |    3060    93976  5923896 |     2000      100     99 |        0 |        20         0 |
|       250 |    3060    93976  5923896 |     2000      250     70 |        0 |        40         0 |
|       475 |    3060    93976  5923896 |     2000      475     76 |        0 |        56         0 |
|       812 |    3060    93976  5923896 |     2000      812     65 |        0 |        75         0 |
|      1321 |    3060    93979  5923979 |     2000     1321     71 |        0 |        92         3 |
|      2083 |    3060    93982  5924029 |     3604     1087     37 |        0 |       118         6 |
|      3231 |    3060    93991  5924213 |     3604     2235     56 |        0 |       138        15 |
|      4948 |    3060    94000  5924348 |     5002     2150     25 |        0 |       269        24 |
|      7543 |    3060    94033  5925000 |     5002     4745     51 |        0 |       366        57 |
|     11454 |    3060    94100  5926027 |     6303     6157     44 |        0 |       515       124 |
|     17276 |    3060    94156  5926845 |     8779     5055     29 |        0 |       651       180 |
|     25983 |    3060    94214  5927870 |     9993     9376     52 |        0 |       955       238 |
|     39153 |    3060    94410  5930809 |    12403    11956     49 |        0 |      1064       434 |
|     58697 |    3060    94493  5932166 |    16013    11110     36 |        0 |      1324       517 |
|     88036 |    3060    94640  5934718 |    19609    14645     42 |        0 |      1619       664 |
|    131964 |    3060    94779  5937023 |    24409    15773     33 |        0 |      1966       803 |
|    198102 |    3023    92789  5880162 |    30316    14817     18 |        0 |      3110      1257 |
=====================================================================================================
Number of solutions   : 0
Canonical subgraphs   : 3274           (350 /sec)
          order  3    : 1              (200000 /sec)
          order  4    : 1              (500000 /sec)
          order  5    : 1              (250000 /sec)
          order  6    : 1              (55556 /sec)
          order  7    : 2              (10101 /sec)
          order  8    : 5              (3762 /sec)
          order  9    : 23             (1760 /sec)
          order 10    : 95             (885 /sec)
          order 11    : 727            (499 /sec)
          order 12    : 2135           (322 /sec)
          order 13    : 244            (261 /sec)
          order 14    : 37             (171 /sec)
          order 15    : 1              (354 /sec)
          order 16    : 1              (332 /sec)
          order 17    : 0              (-nan /sec)
          order 18    : 0              (-nan /sec)
          order 19    : 0              (-nan /sec)
          order 20    : 0              (-nan /sec)
          order 21    : 0              (-nan /sec)
Noncanonical subgraphs: 1260           (2361 /sec)
          order  3    : 0              (-nan /sec)
          order  4    : 0              (-nan /sec)
          order  5    : 0              (-nan /sec)
          order  6    : 0              (-nan /sec)
          order  7    : 0              (-nan /sec)
          order  8    : 0              (-nan /sec)
          order  9    : 0              (-nan /sec)
          order 10    : 0              (-nan /sec)
          order 11    : 0              (-nan /sec)
          order 12    : 0              (-nan /sec)
          order 13    : 1240           (2354 /sec)
          order 14    : 19             (2771 /sec)
          order 15    : 1              (43478 /sec)
          order 16    : 0              (-nan /sec)
          order 17    : 0              (-nan /sec)
          order 18    : 0              (-nan /sec)
          order 19    : 0              (-nan /sec)
          order 20    : 0              (-nan /sec)
Canonicity checking   : 9.35726 s
Noncanonicity checking: 0.533608 s
Total canonicity time : 9.89087 s
database reductions   : 23
restarts              : 510
conflicts             : 204296         (3433 /sec)
decisions             : 281619         (0.00 % random) (4732 /sec)
propagations          : 9691811        (162853 /sec)
conflict literals     : 14341828       (52.64 % deleted)
actual reward         : 0.254602
Memory used           : 93.00 MB
CPU time              : 59.5126 s

UNSATISFIABLE
